%%%mzn-stat: initTime=0.021206321
%%%mzn-stat: objective=927
%%%mzn-stat: nodes=51751
%%%mzn-stat: restarts=3
%%%mzn-stat: peakDepth=1603
%%%mzn-stat: solveTime=30.954468549
%%%mzn-stat: variables=2442
%%%mzn-stat: propagators=2041
%%%mzn-stat: failures=46954
%%%mzn-stat: propagations=1818014
%%%mzn-stat: nogoods=46954
%%%mzn-stat: AverageConflictSize=38.1592835541168
%%%mzn-stat: NumUnitNogoodsLearned=184
%%%mzn-stat: AverageLearnedNogoodLength=56.179984665843165
%%%mzn-stat: AverageBacktrackAmount=0
%%%mzn-stat: AverageLbd=29.902074370660646
%%%mzn-stat-end
maxleg = 927;
succ = array1d(1..150,[132, 142, 89, 69, 109, 42, 107, 17, 24, 37, 75, 70, 48, 65, 131, 100, 71, 144, 123, 13, 121, 44, 20, 41, 108, 103, 28, 146, 49, 92, 150, 51, 120, 106, 45, 139, 72, 7, 12, 133, 84, 122, 83, 119, 80, 67, 102, 128, 140, 18, 47, 148, 135, 58, 97, 127, 136, 32, 14, 29, 115, 38, 19, 141, 57, 8, 145, 55, 25, 85, 104, 30, 90, 31, 73, 95, 36, 15, 26, 22, 137, 77, 81, 1, 96, 99, 113, 114, 60, 46, 3, 56, 23, 34, 4, 59, 16, 52, 117, 124, 112, 39, 74, 82, 33, 149, 35, 43, 61, 54, 79, 111, 86, 64, 2, 126, 68, 147, 101, 63, 116, 134, 88, 9, 5, 138, 78, 110, 53, 87, 143, 105, 129, 50, 6, 118, 91, 40, 11, 130, 93, 76, 125, 10, 21, 66, 98, 94, 62, 27]);
% time elapsed: 38.38 s
----------
%%%mzn-stat: initTime=0.021206321
%%%mzn-stat: objective=185
%%%mzn-stat: nodes=54439
%%%mzn-stat: restarts=3
%%%mzn-stat: peakDepth=1649
%%%mzn-stat: solveTime=31.503394163
%%%mzn-stat: variables=2442
%%%mzn-stat: propagators=2041
%%%mzn-stat: failures=47815
%%%mzn-stat: propagations=1859493
%%%mzn-stat: nogoods=47815
%%%mzn-stat: AverageConflictSize=37.95513960054376
%%%mzn-stat: NumUnitNogoodsLearned=184
%%%mzn-stat: AverageLearnedNogoodLength=55.86972707309422
%%%mzn-stat: AverageBacktrackAmount=0
%%%mzn-stat: AverageLbd=29.720401547631496
%%%mzn-stat-end
maxleg = 185;
succ = array1d(1..150,[132, 143, 90, 78, 95, 42, 94, 17, 81, 37, 75, 70, 128, 54, 131, 100, 71, 89, 123, 40, 144, 44, 116, 117, 109, 112, 28, 146, 140, 92, 74, 51, 97, 107, 45, 139, 72, 7, 61, 133, 84, 122, 83, 119, 80, 67, 102, 118, 3, 18, 47, 22, 135, 58, 113, 127, 98, 32, 20, 24, 142, 38, 19, 141, 14, 8, 145, 55, 25, 85, 46, 30, 150, 26, 77, 108, 31, 15, 103, 57, 137, 73, 12, 1, 96, 99, 41, 121, 60, 36, 29, 56, 23, 34, 4, 59, 16, 65, 130, 124, 106, 39, 104, 82, 33, 149, 35, 43, 2, 48, 79, 111, 86, 64, 76, 126, 68, 147, 101, 63, 114, 134, 88, 9, 5, 138, 120, 110, 53, 87, 115, 105, 129, 50, 6, 148, 91, 13, 11, 49, 93, 69, 125, 10, 21, 66, 136, 52, 62, 27]);
% time elapsed: 38.93 s
----------
==========
% time elapsed: 38.93 s
%%%mzn-stat: initTime=0.021206321
%%%mzn-stat: objective=185
%%%mzn-stat: nodes=54439
%%%mzn-stat: restarts=3
%%%mzn-stat: peakDepth=1649
%%%mzn-stat: solveTime=31.503399009
%%%mzn-stat: variables=2442
%%%mzn-stat: propagators=2041
%%%mzn-stat: failures=47815
%%%mzn-stat: propagations=1859493
%%%mzn-stat: nogoods=47815
%%%mzn-stat: AverageConflictSize=37.95513960054376
%%%mzn-stat: NumUnitNogoodsLearned=184
%%%mzn-stat: AverageLearnedNogoodLength=55.86972707309422
%%%mzn-stat: AverageBacktrackAmount=0
%%%mzn-stat: AverageLbd=29.720401547631496
%%%mzn-stat-end
